Minimize
	value: tt

Subject to
tt + 1024 s_1_1 > 0.0
tt - t_1_1 - 1031.462022 s_1_1 + 7.462022 s_1_6 > -1013.228222
tt + 1024 s_2_1 > 0.0
tt - t_2_1 - 1031.678471 s_2_1 + 7.678471 s_2_6 > -1011.985400
tt + 1024 s_1_2 > 0.0
tt - t_1_2 - 1031.462022 s_1_2 + 7.462022 s_1_7 > -1012.783756
tt + 1024 s_2_2 > 0.0
tt - t_2_2 - 1031.678471 s_2_2 + 7.678471 s_2_7 > -1011.809000
tt + 1024 s_1_3 > 0.0
tt - t_1_3 - 1031.462022 s_1_3 + 7.462022 s_1_7 > -1006.336800
tt + 1024 s_2_3 > 0.0
tt - t_2_3 - 1031.678471 s_2_3 + 7.678471 s_2_7 > -1007.285600
tt + 1024 s_1_4 > 0.0
tt - t_1_4 - 1037.200215 s_1_4 + 13.200215 s_1_7 > -1014.785744
tt + 1024 s_2_4 > 0.0
tt - t_2_4 - 1037.441968 s_2_4 + 13.441968 s_2_7 > -1012.013400
tt + 1024 s_1_5 > 0.0
tt - t_1_5 - 1038.924044 s_1_5 + 14.924044 s_1_6 > -1010.049900
tt + 1024 s_2_5 > 0.0
tt - t_2_5 - 1039.356941 s_2_5 + 15.356941 s_2_6 > -1011.451600
tt + 1024 s_1_6 > 0.0
tt - t_1_6 - 1024.000000 s_1_6 > -984.371100
tt + 1024 s_2_6 > 0.0
tt - t_2_6 - 1024.000000 s_2_6 > -1008.965700
tt + 1024 s_1_7 > 0.0
tt - t_1_7 - 1024.000000 s_1_7 > -985.027400
tt + 1024 s_2_7 > 0.0
tt - t_2_7 - 1024.000000 s_2_7 > -1008.984800
tt + 1024 s_1_8 > 0.0
tt - t_1_8 - 1095.727414 s_1_8 + 71.727414 s_1_2 > -1022.684100
tt + 1024 s_2_8 > 0.0
tt - t_2_8 - 1096.043714 s_2_8 + 72.043714 s_2_2 > -1020.542400
s_1_1 + s_2_1  = 1
s_1_2 + s_2_2  = 1
s_1_3 + s_2_3  = 1
s_1_4 + s_2_4  = 1
s_1_5 + s_2_5  = 1
s_1_6 + s_2_6  = 1
s_1_7 + s_2_7  = 1
s_1_8 + s_2_8  = 1
s_1_1 + s_1_2 + 1024 r_1_1_2 >= 2
- s_1_1 - s_1_2 - 1024 r_1_1_2 >= -1025
t_1_1 - t_1_2 - 1024.000000 u_1_1_2 - 7.462022 s_1_2 + 7.462022 s_1_7 + 2048.000000 r_1_1_2 > -1012.783756
s_2_1 + s_2_2 + 1024 r_2_1_2 >= 2
- s_2_1 - s_2_2 - 1024 r_2_1_2 >= -1025
t_2_1 - t_2_2 - 1024.000000 u_2_1_2 - 7.678471 s_2_2 + 7.678471 s_2_7 + 2048.000000 r_2_1_2 > -1011.809000
s_1_1 + s_1_3 + 1024 r_1_1_3 >= 2
- s_1_1 - s_1_3 - 1024 r_1_1_3 >= -1025
t_1_1 - t_1_3 - 1024.000000 u_1_1_3 - 7.462022 s_1_3 + 7.462022 s_1_7 + 2048.000000 r_1_1_3 > -1006.336800
s_2_1 + s_2_3 + 1024 r_2_1_3 >= 2
- s_2_1 - s_2_3 - 1024 r_2_1_3 >= -1025
t_2_1 - t_2_3 - 1024.000000 u_2_1_3 - 7.678471 s_2_3 + 7.678471 s_2_7 + 2048.000000 r_2_1_3 > -1007.285600
s_1_1 + s_1_4 + 1024 r_1_1_4 >= 2
- s_1_1 - s_1_4 - 1024 r_1_1_4 >= -1025
t_1_1 - t_1_4 - 1024.000000 u_1_1_4 - 6.600108 s_1_4 + 6.600108 s_1_7 + 2048.000000 r_1_1_4 > -1014.785744
s_2_1 + s_2_4 + 1024 r_2_1_4 >= 2
- s_2_1 - s_2_4 - 1024 r_2_1_4 >= -1025
t_2_1 - t_2_4 - 1024.000000 u_2_1_4 - 6.720984 s_2_4 + 6.720984 s_2_7 + 2048.000000 r_2_1_4 > -1012.013400
s_1_1 + s_1_5 + 1024 r_1_1_5 >= 2
- s_1_1 - s_1_5 - 1024 r_1_1_5 >= -1025
t_1_1 - t_1_5 - 1024.000000 u_1_1_5 - 7.462022 s_1_5 + 7.462022 s_1_6 + 2048.000000 r_1_1_5 > -1010.049900
s_2_1 + s_2_5 + 1024 r_2_1_5 >= 2
- s_2_1 - s_2_5 - 1024 r_2_1_5 >= -1025
t_2_1 - t_2_5 - 1024.000000 u_2_1_5 - 7.678471 s_2_5 + 7.678471 s_2_6 + 2048.000000 r_2_1_5 > -1011.451600
t_1_1 - t_1_6 - 1024.000000 s_1_6 > -984.371100
t_1_1 - t_2_6 - 1024.000000 s_2_6 > -1008.965700
t_2_1 - t_1_6 - 1024.000000 s_1_6 > -984.371100
t_2_1 - t_2_6 - 1024.000000 s_2_6 > -1008.965700
s_1_1 + s_1_7 + 1024 r_1_1_7 >= 2
- s_1_1 - s_1_7 - 1024 r_1_1_7 >= -1025
t_1_1 - t_1_7 - 1024.000000 u_1_1_7 + 2048.000000 r_1_1_7 > -985.027400
s_2_1 + s_2_7 + 1024 r_2_1_7 >= 2
- s_2_1 - s_2_7 - 1024 r_2_1_7 >= -1025
t_2_1 - t_2_7 - 1024.000000 u_2_1_7 + 2048.000000 r_2_1_7 > -1008.984800
t_1_8 - t_1_1 - 18.233800 s_1_1 + 7.462022 s_1_6 > 0.0
t_1_8 - t_2_1 - 19.693071 s_2_1 + 7.678471 s_2_6 > 0.0
t_2_8 - t_1_1 - 18.233800 s_1_1 + 7.462022 s_1_6 > 0.0
t_2_8 - t_2_1 - 19.693071 s_2_1 + 7.678471 s_2_6 > 0.0
s_1_2 + s_1_1 + 1024 r_1_1_2 >= 2
- s_1_2 - s_1_1 - 1024 r_1_1_2 >= -1025
t_1_2 - t_1_1 + 1024.000000 u_1_1_2 - 7.462022 s_1_1 + 7.462022 s_1_6 + 2048.000000 r_1_1_2 > 10.771778
s_2_2 + s_2_1 + 1024 r_2_1_2 >= 2
- s_2_2 - s_2_1 - 1024 r_2_1_2 >= -1025
t_2_2 - t_2_1 + 1024.000000 u_2_1_2 - 7.678471 s_2_1 + 7.678471 s_2_6 + 2048.000000 r_2_1_2 > 12.014600
s_1_2 + s_1_3 + 1024 r_1_2_3 >= 2
- s_1_2 - s_1_3 - 1024 r_1_2_3 >= -1025
t_1_2 - t_1_3 - 1024.000000 u_1_2_3 - 7.462022 s_1_3 + 7.462022 s_1_7 + 2048.000000 r_1_2_3 > -1006.336800
s_2_2 + s_2_3 + 1024 r_2_2_3 >= 2
- s_2_2 - s_2_3 - 1024 r_2_2_3 >= -1025
t_2_2 - t_2_3 - 1024.000000 u_2_2_3 - 7.678471 s_2_3 + 7.678471 s_2_7 + 2048.000000 r_2_2_3 > -1007.285600
s_1_2 + s_1_4 + 1024 r_1_2_4 >= 2
- s_1_2 - s_1_4 - 1024 r_1_2_4 >= -1025
t_1_2 - t_1_4 - 1024.000000 u_1_2_4 - 6.600108 s_1_4 + 6.600108 s_1_7 + 2048.000000 r_1_2_4 > -1014.785744
s_2_2 + s_2_4 + 1024 r_2_2_4 >= 2
- s_2_2 - s_2_4 - 1024 r_2_2_4 >= -1025
t_2_2 - t_2_4 - 1024.000000 u_2_2_4 - 6.720984 s_2_4 + 6.720984 s_2_7 + 2048.000000 r_2_2_4 > -1012.013400
s_1_2 + s_1_5 + 1024 r_1_2_5 >= 2
- s_1_2 - s_1_5 - 1024 r_1_2_5 >= -1025
t_1_2 - t_1_5 - 1024.000000 u_1_2_5 - 7.462022 s_1_5 + 7.462022 s_1_6 + 2048.000000 r_1_2_5 > -1010.049900
s_2_2 + s_2_5 + 1024 r_2_2_5 >= 2
- s_2_2 - s_2_5 - 1024 r_2_2_5 >= -1025
t_2_2 - t_2_5 - 1024.000000 u_2_2_5 - 7.678471 s_2_5 + 7.678471 s_2_6 + 2048.000000 r_2_2_5 > -1011.451600
s_1_2 + s_1_6 + 1024 r_1_2_6 >= 2
- s_1_2 - s_1_6 - 1024 r_1_2_6 >= -1025
t_1_2 - t_1_6 - 1024.000000 u_1_2_6 + 2048.000000 r_1_2_6 > -984.371100
s_2_2 + s_2_6 + 1024 r_2_2_6 >= 2
- s_2_2 - s_2_6 - 1024 r_2_2_6 >= -1025
t_2_2 - t_2_6 - 1024.000000 u_2_2_6 + 2048.000000 r_2_2_6 > -1008.965700
t_1_2 - t_1_7 - 1024.000000 s_1_7 > -985.027400
t_1_2 - t_2_7 - 1024.000000 s_2_7 > -1008.984800
t_2_2 - t_1_7 - 1024.000000 s_1_7 > -985.027400
t_2_2 - t_2_7 - 1024.000000 s_2_7 > -1008.984800
t_1_8 - t_1_2 - 18.678266 s_1_2 + 7.462022 s_1_7 > 0.0
t_1_8 - t_2_2 - 19.869471 s_2_2 + 7.678471 s_2_7 > 0.0
t_2_8 - t_1_2 - 18.678266 s_1_2 + 7.462022 s_1_7 > 0.0
t_2_8 - t_2_2 - 19.869471 s_2_2 + 7.678471 s_2_7 > 0.0
s_1_3 + s_1_1 + 1024 r_1_1_3 >= 2
- s_1_3 - s_1_1 - 1024 r_1_1_3 >= -1025
t_1_3 - t_1_1 + 1024.000000 u_1_1_3 - 7.462022 s_1_1 + 7.462022 s_1_6 + 2048.000000 r_1_1_3 > 10.771778
s_2_3 + s_2_1 + 1024 r_2_1_3 >= 2
- s_2_3 - s_2_1 - 1024 r_2_1_3 >= -1025
t_2_3 - t_2_1 + 1024.000000 u_2_1_3 - 7.678471 s_2_1 + 7.678471 s_2_6 + 2048.000000 r_2_1_3 > 12.014600
s_1_3 + s_1_2 + 1024 r_1_2_3 >= 2
- s_1_3 - s_1_2 - 1024 r_1_2_3 >= -1025
t_1_3 - t_1_2 + 1024.000000 u_1_2_3 - 7.462022 s_1_2 + 7.462022 s_1_7 + 2048.000000 r_1_2_3 > 11.216244
s_2_3 + s_2_2 + 1024 r_2_2_3 >= 2
- s_2_3 - s_2_2 - 1024 r_2_2_3 >= -1025
t_2_3 - t_2_2 + 1024.000000 u_2_2_3 - 7.678471 s_2_2 + 7.678471 s_2_7 + 2048.000000 r_2_2_3 > 12.191000
t_1_4 - t_1_3 - 25.125222 s_1_3 + 7.462022 s_1_7 > 0.0
t_1_4 - t_2_3 - 24.392871 s_2_3 + 7.678471 s_2_7 > 0.0
t_2_4 - t_1_3 - 25.125222 s_1_3 + 7.462022 s_1_7 > 0.0
t_2_4 - t_2_3 - 24.392871 s_2_3 + 7.678471 s_2_7 > 0.0
s_1_3 + s_1_5 + 1024 r_1_3_5 >= 2
- s_1_3 - s_1_5 - 1024 r_1_3_5 >= -1025
t_1_3 - t_1_5 - 1024.000000 u_1_3_5 - 7.462022 s_1_5 + 7.462022 s_1_6 + 2048.000000 r_1_3_5 > -1010.049900
s_2_3 + s_2_5 + 1024 r_2_3_5 >= 2
- s_2_3 - s_2_5 - 1024 r_2_3_5 >= -1025
t_2_3 - t_2_5 - 1024.000000 u_2_3_5 - 7.678471 s_2_5 + 7.678471 s_2_6 + 2048.000000 r_2_3_5 > -1011.451600
s_1_3 + s_1_6 + 1024 r_1_3_6 >= 2
- s_1_3 - s_1_6 - 1024 r_1_3_6 >= -1025
t_1_3 - t_1_6 - 1024.000000 u_1_3_6 + 2048.000000 r_1_3_6 > -984.371100
s_2_3 + s_2_6 + 1024 r_2_3_6 >= 2
- s_2_3 - s_2_6 - 1024 r_2_3_6 >= -1025
t_2_3 - t_2_6 - 1024.000000 u_2_3_6 + 2048.000000 r_2_3_6 > -1008.965700
t_1_3 - t_1_7 - 1024.000000 s_1_7 > -985.027400
t_1_3 - t_2_7 - 1024.000000 s_2_7 > -1008.984800
t_2_3 - t_1_7 - 1024.000000 s_1_7 > -985.027400
t_2_3 - t_2_7 - 1024.000000 s_2_7 > -1008.984800
t_1_8 - t_1_3 - 25.125222 s_1_3 + 7.462022 s_1_7 > 0.0
t_1_8 - t_2_3 - 24.392871 s_2_3 + 7.678471 s_2_7 > 0.0
t_2_8 - t_1_3 - 25.125222 s_1_3 + 7.462022 s_1_7 > 0.0
t_2_8 - t_2_3 - 24.392871 s_2_3 + 7.678471 s_2_7 > 0.0
s_1_4 + s_1_1 + 1024 r_1_1_4 >= 2
- s_1_4 - s_1_1 - 1024 r_1_1_4 >= -1025
t_1_4 - t_1_1 + 1024.000000 u_1_1_4 - 7.462022 s_1_1 + 7.462022 s_1_6 + 2048.000000 r_1_1_4 > 10.771778
s_2_4 + s_2_1 + 1024 r_2_1_4 >= 2
- s_2_4 - s_2_1 - 1024 r_2_1_4 >= -1025
t_2_4 - t_2_1 + 1024.000000 u_2_1_4 - 7.678471 s_2_1 + 7.678471 s_2_6 + 2048.000000 r_2_1_4 > 12.014600
s_1_4 + s_1_2 + 1024 r_1_2_4 >= 2
- s_1_4 - s_1_2 - 1024 r_1_2_4 >= -1025
t_1_4 - t_1_2 + 1024.000000 u_1_2_4 - 7.462022 s_1_2 + 7.462022 s_1_7 + 2048.000000 r_1_2_4 > 11.216244
s_2_4 + s_2_2 + 1024 r_2_2_4 >= 2
- s_2_4 - s_2_2 - 1024 r_2_2_4 >= -1025
t_2_4 - t_2_2 + 1024.000000 u_2_2_4 - 7.678471 s_2_2 + 7.678471 s_2_7 + 2048.000000 r_2_2_4 > 12.191000
s_1_4 + s_1_5 + 1024 r_1_4_5 >= 2
- s_1_4 - s_1_5 - 1024 r_1_4_5 >= -1025
t_1_4 - t_1_5 - 1024.000000 u_1_4_5 - 7.462022 s_1_5 + 7.462022 s_1_6 + 2048.000000 r_1_4_5 > -1010.049900
s_2_4 + s_2_5 + 1024 r_2_4_5 >= 2
- s_2_4 - s_2_5 - 1024 r_2_4_5 >= -1025
t_2_4 - t_2_5 - 1024.000000 u_2_4_5 - 7.678471 s_2_5 + 7.678471 s_2_6 + 2048.000000 r_2_4_5 > -1011.451600
s_1_4 + s_1_6 + 1024 r_1_4_6 >= 2
- s_1_4 - s_1_6 - 1024 r_1_4_6 >= -1025
t_1_4 - t_1_6 - 1024.000000 u_1_4_6 + 2048.000000 r_1_4_6 > -984.371100
s_2_4 + s_2_6 + 1024 r_2_4_6 >= 2
- s_2_4 - s_2_6 - 1024 r_2_4_6 >= -1025
t_2_4 - t_2_6 - 1024.000000 u_2_4_6 + 2048.000000 r_2_4_6 > -1008.965700
t_1_4 - t_1_7 - 1024.000000 s_1_7 > -985.027400
t_1_4 - t_2_7 - 1024.000000 s_2_7 > -1008.984800
t_2_4 - t_1_7 - 1024.000000 s_1_7 > -985.027400
t_2_4 - t_2_7 - 1024.000000 s_2_7 > -1008.984800
t_1_8 - t_1_4 - 15.814363 s_1_4 + 6.600108 s_1_7 > 0.0
t_1_8 - t_2_4 - 18.707584 s_2_4 + 6.720984 s_2_7 > 0.0
t_2_8 - t_1_4 - 15.814363 s_1_4 + 6.600108 s_1_7 > 0.0
t_2_8 - t_2_4 - 18.707584 s_2_4 + 6.720984 s_2_7 > 0.0
s_1_5 + s_1_1 + 1024 r_1_1_5 >= 2
- s_1_5 - s_1_1 - 1024 r_1_1_5 >= -1025
t_1_5 - t_1_1 + 1024.000000 u_1_1_5 - 7.462022 s_1_1 + 7.462022 s_1_6 + 2048.000000 r_1_1_5 > 10.771778
s_2_5 + s_2_1 + 1024 r_2_1_5 >= 2
- s_2_5 - s_2_1 - 1024 r_2_1_5 >= -1025
t_2_5 - t_2_1 + 1024.000000 u_2_1_5 - 7.678471 s_2_1 + 7.678471 s_2_6 + 2048.000000 r_2_1_5 > 12.014600
s_1_5 + s_1_2 + 1024 r_1_2_5 >= 2
- s_1_5 - s_1_2 - 1024 r_1_2_5 >= -1025
t_1_5 - t_1_2 + 1024.000000 u_1_2_5 - 7.462022 s_1_2 + 7.462022 s_1_7 + 2048.000000 r_1_2_5 > 11.216244
s_2_5 + s_2_2 + 1024 r_2_2_5 >= 2
- s_2_5 - s_2_2 - 1024 r_2_2_5 >= -1025
t_2_5 - t_2_2 + 1024.000000 u_2_2_5 - 7.678471 s_2_2 + 7.678471 s_2_7 + 2048.000000 r_2_2_5 > 12.191000
s_1_5 + s_1_3 + 1024 r_1_3_5 >= 2
- s_1_5 - s_1_3 - 1024 r_1_3_5 >= -1025
t_1_5 - t_1_3 + 1024.000000 u_1_3_5 - 7.462022 s_1_3 + 7.462022 s_1_7 + 2048.000000 r_1_3_5 > 17.663200
s_2_5 + s_2_3 + 1024 r_2_3_5 >= 2
- s_2_5 - s_2_3 - 1024 r_2_3_5 >= -1025
t_2_5 - t_2_3 + 1024.000000 u_2_3_5 - 7.678471 s_2_3 + 7.678471 s_2_7 + 2048.000000 r_2_3_5 > 16.714400
s_1_5 + s_1_4 + 1024 r_1_4_5 >= 2
- s_1_5 - s_1_4 - 1024 r_1_4_5 >= -1025
t_1_5 - t_1_4 + 1024.000000 u_1_4_5 - 6.600108 s_1_4 + 6.600108 s_1_7 + 2048.000000 r_1_4_5 > 9.214256
s_2_5 + s_2_4 + 1024 r_2_4_5 >= 2
- s_2_5 - s_2_4 - 1024 r_2_4_5 >= -1025
t_2_5 - t_2_4 + 1024.000000 u_2_4_5 - 6.720984 s_2_4 + 6.720984 s_2_7 + 2048.000000 r_2_4_5 > 11.986600
t_1_5 - t_1_6 - 1024.000000 s_1_6 > -984.371100
t_1_5 - t_2_6 - 1024.000000 s_2_6 > -1008.965700
t_2_5 - t_1_6 - 1024.000000 s_1_6 > -984.371100
t_2_5 - t_2_6 - 1024.000000 s_2_6 > -1008.965700
t_1_5 - t_1_7 - 1024.000000 s_1_7 > -985.027400
t_1_5 - t_2_7 - 1024.000000 s_2_7 > -1008.984800
t_2_5 - t_1_7 - 1024.000000 s_1_7 > -985.027400
t_2_5 - t_2_7 - 1024.000000 s_2_7 > -1008.984800
t_1_8 - t_1_5 - 21.412122 s_1_5 + 7.462022 s_1_6 > 0.0
t_1_8 - t_2_5 - 20.226871 s_2_5 + 7.678471 s_2_6 > 0.0
t_2_8 - t_1_5 - 21.412122 s_1_5 + 7.462022 s_1_6 > 0.0
t_2_8 - t_2_5 - 20.226871 s_2_5 + 7.678471 s_2_6 > 0.0
s_1_6 + s_1_2 + 1024 r_1_2_6 >= 2
- s_1_6 - s_1_2 - 1024 r_1_2_6 >= -1025
t_1_6 - t_1_2 + 1024.000000 u_1_2_6 - 7.462022 s_1_2 + 7.462022 s_1_7 + 2048.000000 r_1_2_6 > 11.216244
s_2_6 + s_2_2 + 1024 r_2_2_6 >= 2
- s_2_6 - s_2_2 - 1024 r_2_2_6 >= -1025
t_2_6 - t_2_2 + 1024.000000 u_2_2_6 - 7.678471 s_2_2 + 7.678471 s_2_7 + 2048.000000 r_2_2_6 > 12.191000
s_1_6 + s_1_3 + 1024 r_1_3_6 >= 2
- s_1_6 - s_1_3 - 1024 r_1_3_6 >= -1025
t_1_6 - t_1_3 + 1024.000000 u_1_3_6 - 7.462022 s_1_3 + 7.462022 s_1_7 + 2048.000000 r_1_3_6 > 17.663200
s_2_6 + s_2_3 + 1024 r_2_3_6 >= 2
- s_2_6 - s_2_3 - 1024 r_2_3_6 >= -1025
t_2_6 - t_2_3 + 1024.000000 u_2_3_6 - 7.678471 s_2_3 + 7.678471 s_2_7 + 2048.000000 r_2_3_6 > 16.714400
s_1_6 + s_1_4 + 1024 r_1_4_6 >= 2
- s_1_6 - s_1_4 - 1024 r_1_4_6 >= -1025
t_1_6 - t_1_4 + 1024.000000 u_1_4_6 - 6.600108 s_1_4 + 6.600108 s_1_7 + 2048.000000 r_1_4_6 > 9.214256
s_2_6 + s_2_4 + 1024 r_2_4_6 >= 2
- s_2_6 - s_2_4 - 1024 r_2_4_6 >= -1025
t_2_6 - t_2_4 + 1024.000000 u_2_4_6 - 6.720984 s_2_4 + 6.720984 s_2_7 + 2048.000000 r_2_4_6 > 11.986600
s_1_6 + s_1_7 + 1024 r_1_6_7 >= 2
- s_1_6 - s_1_7 - 1024 r_1_6_7 >= -1025
t_1_6 - t_1_7 - 1024.000000 u_1_6_7 + 2048.000000 r_1_6_7 > -985.027400
s_2_6 + s_2_7 + 1024 r_2_6_7 >= 2
- s_2_6 - s_2_7 - 1024 r_2_6_7 >= -1025
t_2_6 - t_2_7 - 1024.000000 u_2_6_7 + 2048.000000 r_2_6_7 > -1008.984800
s_1_7 + s_1_1 + 1024 r_1_1_7 >= 2
- s_1_7 - s_1_1 - 1024 r_1_1_7 >= -1025
t_1_7 - t_1_1 + 1024.000000 u_1_1_7 - 7.462022 s_1_1 + 7.462022 s_1_6 + 2048.000000 r_1_1_7 > 10.771778
s_2_7 + s_2_1 + 1024 r_2_1_7 >= 2
- s_2_7 - s_2_1 - 1024 r_2_1_7 >= -1025
t_2_7 - t_2_1 + 1024.000000 u_2_1_7 - 7.678471 s_2_1 + 7.678471 s_2_6 + 2048.000000 r_2_1_7 > 12.014600
s_1_7 + s_1_6 + 1024 r_1_6_7 >= 2
- s_1_7 - s_1_6 - 1024 r_1_6_7 >= -1025
t_1_7 - t_1_6 + 1024.000000 u_1_6_7 + 2048.000000 r_1_6_7 > 39.628900
s_2_7 + s_2_6 + 1024 r_2_6_7 >= 2
- s_2_7 - s_2_6 - 1024 r_2_6_7 >= -1025
t_2_7 - t_2_6 + 1024.000000 u_2_6_7 + 2048.000000 r_2_6_7 > 15.034300
Binary
s_1_1
s_2_1
s_1_2
s_2_2
s_1_3
s_2_3
s_1_4
s_2_4
s_1_5
s_2_5
s_1_6
s_2_6
s_1_7
s_2_7
s_1_8
s_2_8
u_1_1_2
r_1_1_2
u_2_1_2
r_2_1_2
u_1_1_3
r_1_1_3
u_2_1_3
r_2_1_3
u_1_1_4
r_1_1_4
u_2_1_4
r_2_1_4
u_1_1_5
r_1_1_5
u_2_1_5
r_2_1_5
u_1_1_7
r_1_1_7
u_2_1_7
r_2_1_7
u_1_2_3
r_1_2_3
u_2_2_3
r_2_2_3
u_1_2_4
r_1_2_4
u_2_2_4
r_2_2_4
u_1_2_5
r_1_2_5
u_2_2_5
r_2_2_5
u_1_2_6
r_1_2_6
u_2_2_6
r_2_2_6
u_1_3_5
r_1_3_5
u_2_3_5
r_2_3_5
u_1_3_6
r_1_3_6
u_2_3_6
r_2_3_6
u_1_4_5
r_1_4_5
u_2_4_5
r_2_4_5
u_1_4_6
r_1_4_6
u_2_4_6
r_2_4_6
u_1_6_7
r_1_6_7
u_2_6_7
r_2_6_7

End
